Version identifier: 22.1.1.0 | 2022-11-28 | 9160aff4d
CPXPARAM_ClockType                               1
CPXPARAM_Read_DataCheck                          1
CPXPARAM_Threads                                 1
CPXPARAM_Simplex_Tolerances_Optimality           1.0000000000000001e-09
CPXPARAM_TimeLimit                               7200
CPXPARAM_MIP_Tolerances_AbsMIPGap                0
CPXPARAM_MIP_Tolerances_MIPGap                   0
CPXPARAM_MIP_Tolerances_Integrality              0
Tried aggregator 1 time.
MIQP Presolve eliminated 587 rows and 9 columns.
MIQP Presolve modified 18 coefficients.
Reduced MIQP has 37164 rows, 6391 columns, and 148016 nonzeros.
Reduced MIQP has 6071 binaries, 320 generals, 0 SOSs, and 0 indicators.
Reduced MIQP objective Q matrix has 320 nonzeros.
Presolve time = 0.13 sec. (82.73 ticks)
Probing time = 0.01 sec. (4.24 ticks)
Tried aggregator 1 time.
Reduced MIQP has 37164 rows, 6391 columns, and 148016 nonzeros.
Reduced MIQP has 6071 binaries, 320 generals, 0 SOSs, and 0 indicators.
Reduced MIQP objective Q matrix has 320 nonzeros.
Presolve time = 0.12 sec. (69.19 ticks)
Classifier predicts products in MIQP should be linearized.
Probing time = 0.01 sec. (4.21 ticks)
Clique table members: 153.
MIP emphasis: balance optimality and feasibility.
MIP search method: dynamic search.
Parallel mode: none, using 1 thread.
Root relaxation solution time = 45.98 sec. (98804.03 ticks)

        Nodes                                         Cuts/
   Node  Left     Objective  IInf  Best Integer    Best Bound    ItCnt     Gap

      0     0     8000.0000  2190                   8000.0000        6         
      0     0     8000.0000  3278               ZeroHalf: 1825    16808         

Implied bound cuts applied:  2
Zero-half cuts applied:  4465
Gomory fractional cuts applied:  47

Root node processing (before b&c):
  Real time             = 7203.96 sec. (2511328.20 ticks)
Sequential b&c:
  Real time             =    0.00 sec. (0.00 ticks)
                          ------------
Total (root+branch&cut) = 7203.96 sec. (2511328.20 ticks)
Solution is infeasible.

---------------------
@@@ MIP_time_limit_infeasible
Traceback (most recent call last):
  File "/scratch/scherif/DiverseSAT-journal_sup/DiverseSAT_Supplementary_Experiments/experiment-1/cplex/jobs/../solvers/CPLEX-QP-SE.py", line 118, in <module>
    print(f">>> Benchmark {os.path.basename(cnf_file)} k {k} OPT {int(prob.solution.get_objective_value())}"
  File "/users/scherif/.local/lib/python3.9/site-packages/cplex/_internal/_subinterfaces.py", line 7211, in get_objective_value
    return CPX_PROC.getobjval(self._env._e, self._cplex._lp)
  File "/users/scherif/.local/lib/python3.9/site-packages/cplex/_internal/_procedural.py", line 2055, in getobjval
    check_status(env, status)
  File "/users/scherif/.local/lib/python3.9/site-packages/cplex/_internal/_procedural.py", line 249, in __call__
    raise CplexSolverError(error_string, env, status)
cplex.exceptions.errors.CplexSolverError: CPLEX Error  1217: No solution exists.
